p cnf 253 775
c Polynomial has 30 variables and 223 monomials
c Original variables from 1 to 30
c Monomials variables from 31 to 253
c p weight 1 0 0
c p weight -1 0 0
c p weight 2 0 0
c p weight -2 0 0
c p weight 3 0 0
c p weight -3 0 0
c p weight 4 0 0
c p weight -4 0 0
c p weight 5 0 0
c p weight -5 0 0
c p weight 6 0 0
c p weight -6 0 0
c p weight 7 0 0
c p weight -7 0 0
c p weight 8 0 0
c p weight -8 0 0
c p weight 9 0 0
c p weight -9 0 0
c p weight 10 0 0
c p weight -10 0 0
c p weight 11 0 0
c p weight -11 0 0
c p weight 12 0 0
c p weight -12 0 0
c p weight 13 0 0
c p weight -13 0 0
c p weight 14 0 0
c p weight -14 0 0
c p weight 15 0 0
c p weight -15 0 0
c p weight 16 0 0
c p weight -16 0 0
c p weight 17 0 0
c p weight -17 0 0
c p weight 18 0 0
c p weight -18 0 0
c p weight 19 0 0
c p weight -19 0 0
c p weight 20 0 0
c p weight -20 0 0
c p weight 21 0 0
c p weight -21 0 0
c p weight 22 0 0
c p weight -22 0 0
c p weight 23 0 0
c p weight -23 0 0
c p weight 24 0 0
c p weight -24 0 0
c p weight 25 0 0
c p weight -25 0 0
c p weight 26 0 0
c p weight -26 0 0
c p weight 27 0 0
c p weight -27 0 0
c p weight 28 0 0
c p weight -28 0 0
c p weight 29 0 0
c p weight -29 0 0
c p weight 30 0 0
c p weight -30 0 0
c p weight 31 64 0
c p weight -31 0 0
31 -1 -2 -3 -4 0
-31 1 0
-31 2 0
-31 3 0
-31 4 0
c p weight 32 64 0
c p weight -32 0 0
32 -2 -3 -4 -5 0
-32 2 0
-32 3 0
-32 4 0
-32 5 0
c p weight 33 64 0
c p weight -33 0 0
33 -3 -4 -5 -6 0
-33 3 0
-33 4 0
-33 5 0
-33 6 0
c p weight 34 64 0
c p weight -34 0 0
34 -4 -5 -6 -7 0
-34 4 0
-34 5 0
-34 6 0
-34 7 0
c p weight 35 64 0
c p weight -35 0 0
35 -5 -6 -7 -8 0
-35 5 0
-35 6 0
-35 7 0
-35 8 0
c p weight 36 64 0
c p weight -36 0 0
36 -6 -7 -8 -9 0
-36 6 0
-36 7 0
-36 8 0
-36 9 0
c p weight 37 64 0
c p weight -37 0 0
37 -7 -8 -9 -10 0
-37 7 0
-37 8 0
-37 9 0
-37 10 0
c p weight 38 64 0
c p weight -38 0 0
38 -8 -9 -10 -11 0
-38 8 0
-38 9 0
-38 10 0
-38 11 0
c p weight 39 64 0
c p weight -39 0 0
39 -9 -10 -11 -12 0
-39 9 0
-39 10 0
-39 11 0
-39 12 0
c p weight 40 64 0
c p weight -40 0 0
40 -10 -11 -12 -13 0
-40 10 0
-40 11 0
-40 12 0
-40 13 0
c p weight 41 64 0
c p weight -41 0 0
41 -11 -12 -13 -14 0
-41 11 0
-41 12 0
-41 13 0
-41 14 0
c p weight 42 64 0
c p weight -42 0 0
42 -12 -13 -14 -15 0
-42 12 0
-42 13 0
-42 14 0
-42 15 0
c p weight 43 64 0
c p weight -43 0 0
43 -13 -14 -15 -16 0
-43 13 0
-43 14 0
-43 15 0
-43 16 0
c p weight 44 64 0
c p weight -44 0 0
44 -14 -15 -16 -17 0
-44 14 0
-44 15 0
-44 16 0
-44 17 0
c p weight 45 64 0
c p weight -45 0 0
45 -15 -16 -17 -18 0
-45 15 0
-45 16 0
-45 17 0
-45 18 0
c p weight 46 64 0
c p weight -46 0 0
46 -16 -17 -18 -19 0
-46 16 0
-46 17 0
-46 18 0
-46 19 0
c p weight 47 64 0
c p weight -47 0 0
47 -17 -18 -19 -20 0
-47 17 0
-47 18 0
-47 19 0
-47 20 0
c p weight 48 64 0
c p weight -48 0 0
48 -18 -19 -20 -21 0
-48 18 0
-48 19 0
-48 20 0
-48 21 0
c p weight 49 64 0
c p weight -49 0 0
49 -19 -20 -21 -22 0
-49 19 0
-49 20 0
-49 21 0
-49 22 0
c p weight 50 64 0
c p weight -50 0 0
50 -20 -21 -22 -23 0
-50 20 0
-50 21 0
-50 22 0
-50 23 0
c p weight 51 64 0
c p weight -51 0 0
51 -21 -22 -23 -24 0
-51 21 0
-51 22 0
-51 23 0
-51 24 0
c p weight 52 64 0
c p weight -52 0 0
52 -22 -23 -24 -25 0
-52 22 0
-52 23 0
-52 24 0
-52 25 0
c p weight 53 64 0
c p weight -53 0 0
53 -23 -24 -25 -26 0
-53 23 0
-53 24 0
-53 25 0
-53 26 0
c p weight 54 64 0
c p weight -54 0 0
54 -24 -25 -26 -27 0
-54 24 0
-54 25 0
-54 26 0
-54 27 0
c p weight 55 64 0
c p weight -55 0 0
55 -25 -26 -27 -28 0
-55 25 0
-55 26 0
-55 27 0
-55 28 0
c p weight 56 64 0
c p weight -56 0 0
56 -26 -27 -28 -29 0
-56 26 0
-56 27 0
-56 28 0
-56 29 0
c p weight 57 64 0
c p weight -57 0 0
57 -27 -28 -29 -30 0
-57 27 0
-57 28 0
-57 29 0
-57 30 0
c p weight 58 -32 0
c p weight -58 0 0
58 -1 -2 -3 0
-58 1 0
-58 2 0
-58 3 0
c p weight 59 -32 0
c p weight -59 0 0
59 -1 -2 -4 0
-59 1 0
-59 2 0
-59 4 0
c p weight 60 -32 0
c p weight -60 0 0
60 -1 -3 -4 0
-60 1 0
-60 3 0
-60 4 0
c p weight 61 -64 0
c p weight -61 0 0
61 -2 -3 -4 0
-61 2 0
-61 3 0
-61 4 0
c p weight 62 -32 0
c p weight -62 0 0
62 -2 -3 -5 0
-62 2 0
-62 3 0
-62 5 0
c p weight 63 -32 0
c p weight -63 0 0
63 -2 -4 -5 0
-63 2 0
-63 4 0
-63 5 0
c p weight 64 -64 0
c p weight -64 0 0
64 -3 -4 -5 0
-64 3 0
-64 4 0
-64 5 0
c p weight 65 -32 0
c p weight -65 0 0
65 -3 -4 -6 0
-65 3 0
-65 4 0
-65 6 0
c p weight 66 -32 0
c p weight -66 0 0
66 -3 -5 -6 0
-66 3 0
-66 5 0
-66 6 0
c p weight 67 -64 0
c p weight -67 0 0
67 -4 -5 -6 0
-67 4 0
-67 5 0
-67 6 0
c p weight 68 -32 0
c p weight -68 0 0
68 -4 -5 -7 0
-68 4 0
-68 5 0
-68 7 0
c p weight 69 -32 0
c p weight -69 0 0
69 -4 -6 -7 0
-69 4 0
-69 6 0
-69 7 0
c p weight 70 -64 0
c p weight -70 0 0
70 -5 -6 -7 0
-70 5 0
-70 6 0
-70 7 0
c p weight 71 -32 0
c p weight -71 0 0
71 -5 -6 -8 0
-71 5 0
-71 6 0
-71 8 0
c p weight 72 -32 0
c p weight -72 0 0
72 -5 -7 -8 0
-72 5 0
-72 7 0
-72 8 0
c p weight 73 -64 0
c p weight -73 0 0
73 -6 -7 -8 0
-73 6 0
-73 7 0
-73 8 0
c p weight 74 -32 0
c p weight -74 0 0
74 -6 -7 -9 0
-74 6 0
-74 7 0
-74 9 0
c p weight 75 -32 0
c p weight -75 0 0
75 -6 -8 -9 0
-75 6 0
-75 8 0
-75 9 0
c p weight 76 -64 0
c p weight -76 0 0
76 -7 -8 -9 0
-76 7 0
-76 8 0
-76 9 0
c p weight 77 -32 0
c p weight -77 0 0
77 -7 -8 -10 0
-77 7 0
-77 8 0
-77 10 0
c p weight 78 -32 0
c p weight -78 0 0
78 -7 -9 -10 0
-78 7 0
-78 9 0
-78 10 0
c p weight 79 -64 0
c p weight -79 0 0
79 -8 -9 -10 0
-79 8 0
-79 9 0
-79 10 0
c p weight 80 -32 0
c p weight -80 0 0
80 -8 -9 -11 0
-80 8 0
-80 9 0
-80 11 0
c p weight 81 -32 0
c p weight -81 0 0
81 -8 -10 -11 0
-81 8 0
-81 10 0
-81 11 0
c p weight 82 -64 0
c p weight -82 0 0
82 -9 -10 -11 0
-82 9 0
-82 10 0
-82 11 0
c p weight 83 -32 0
c p weight -83 0 0
83 -9 -10 -12 0
-83 9 0
-83 10 0
-83 12 0
c p weight 84 -32 0
c p weight -84 0 0
84 -9 -11 -12 0
-84 9 0
-84 11 0
-84 12 0
c p weight 85 -64 0
c p weight -85 0 0
85 -10 -11 -12 0
-85 10 0
-85 11 0
-85 12 0
c p weight 86 -32 0
c p weight -86 0 0
86 -10 -11 -13 0
-86 10 0
-86 11 0
-86 13 0
c p weight 87 -32 0
c p weight -87 0 0
87 -10 -12 -13 0
-87 10 0
-87 12 0
-87 13 0
c p weight 88 -64 0
c p weight -88 0 0
88 -11 -12 -13 0
-88 11 0
-88 12 0
-88 13 0
c p weight 89 -32 0
c p weight -89 0 0
89 -11 -12 -14 0
-89 11 0
-89 12 0
-89 14 0
c p weight 90 -32 0
c p weight -90 0 0
90 -11 -13 -14 0
-90 11 0
-90 13 0
-90 14 0
c p weight 91 -64 0
c p weight -91 0 0
91 -12 -13 -14 0
-91 12 0
-91 13 0
-91 14 0
c p weight 92 -32 0
c p weight -92 0 0
92 -12 -13 -15 0
-92 12 0
-92 13 0
-92 15 0
c p weight 93 -32 0
c p weight -93 0 0
93 -12 -14 -15 0
-93 12 0
-93 14 0
-93 15 0
c p weight 94 -64 0
c p weight -94 0 0
94 -13 -14 -15 0
-94 13 0
-94 14 0
-94 15 0
c p weight 95 -32 0
c p weight -95 0 0
95 -13 -14 -16 0
-95 13 0
-95 14 0
-95 16 0
c p weight 96 -32 0
c p weight -96 0 0
96 -13 -15 -16 0
-96 13 0
-96 15 0
-96 16 0
c p weight 97 -64 0
c p weight -97 0 0
97 -14 -15 -16 0
-97 14 0
-97 15 0
-97 16 0
c p weight 98 -32 0
c p weight -98 0 0
98 -14 -15 -17 0
-98 14 0
-98 15 0
-98 17 0
c p weight 99 -32 0
c p weight -99 0 0
99 -14 -16 -17 0
-99 14 0
-99 16 0
-99 17 0
c p weight 100 -64 0
c p weight -100 0 0
100 -15 -16 -17 0
-100 15 0
-100 16 0
-100 17 0
c p weight 101 -32 0
c p weight -101 0 0
101 -15 -16 -18 0
-101 15 0
-101 16 0
-101 18 0
c p weight 102 -32 0
c p weight -102 0 0
102 -15 -17 -18 0
-102 15 0
-102 17 0
-102 18 0
c p weight 103 -64 0
c p weight -103 0 0
103 -16 -17 -18 0
-103 16 0
-103 17 0
-103 18 0
c p weight 104 -32 0
c p weight -104 0 0
104 -16 -17 -19 0
-104 16 0
-104 17 0
-104 19 0
c p weight 105 -32 0
c p weight -105 0 0
105 -16 -18 -19 0
-105 16 0
-105 18 0
-105 19 0
c p weight 106 -64 0
c p weight -106 0 0
106 -17 -18 -19 0
-106 17 0
-106 18 0
-106 19 0
c p weight 107 -32 0
c p weight -107 0 0
107 -17 -18 -20 0
-107 17 0
-107 18 0
-107 20 0
c p weight 108 -32 0
c p weight -108 0 0
108 -17 -19 -20 0
-108 17 0
-108 19 0
-108 20 0
c p weight 109 -64 0
c p weight -109 0 0
109 -18 -19 -20 0
-109 18 0
-109 19 0
-109 20 0
c p weight 110 -32 0
c p weight -110 0 0
110 -18 -19 -21 0
-110 18 0
-110 19 0
-110 21 0
c p weight 111 -32 0
c p weight -111 0 0
111 -18 -20 -21 0
-111 18 0
-111 20 0
-111 21 0
c p weight 112 -64 0
c p weight -112 0 0
112 -19 -20 -21 0
-112 19 0
-112 20 0
-112 21 0
c p weight 113 -32 0
c p weight -113 0 0
113 -19 -20 -22 0
-113 19 0
-113 20 0
-113 22 0
c p weight 114 -32 0
c p weight -114 0 0
114 -19 -21 -22 0
-114 19 0
-114 21 0
-114 22 0
c p weight 115 -64 0
c p weight -115 0 0
115 -20 -21 -22 0
-115 20 0
-115 21 0
-115 22 0
c p weight 116 -32 0
c p weight -116 0 0
116 -20 -21 -23 0
-116 20 0
-116 21 0
-116 23 0
c p weight 117 -32 0
c p weight -117 0 0
117 -20 -22 -23 0
-117 20 0
-117 22 0
-117 23 0
c p weight 118 -64 0
c p weight -118 0 0
118 -21 -22 -23 0
-118 21 0
-118 22 0
-118 23 0
c p weight 119 -32 0
c p weight -119 0 0
119 -21 -22 -24 0
-119 21 0
-119 22 0
-119 24 0
c p weight 120 -32 0
c p weight -120 0 0
120 -21 -23 -24 0
-120 21 0
-120 23 0
-120 24 0
c p weight 121 -64 0
c p weight -121 0 0
121 -22 -23 -24 0
-121 22 0
-121 23 0
-121 24 0
c p weight 122 -32 0
c p weight -122 0 0
122 -22 -23 -25 0
-122 22 0
-122 23 0
-122 25 0
c p weight 123 -32 0
c p weight -123 0 0
123 -22 -24 -25 0
-123 22 0
-123 24 0
-123 25 0
c p weight 124 -64 0
c p weight -124 0 0
124 -23 -24 -25 0
-124 23 0
-124 24 0
-124 25 0
c p weight 125 -32 0
c p weight -125 0 0
125 -23 -24 -26 0
-125 23 0
-125 24 0
-125 26 0
c p weight 126 -32 0
c p weight -126 0 0
126 -23 -25 -26 0
-126 23 0
-126 25 0
-126 26 0
c p weight 127 -64 0
c p weight -127 0 0
127 -24 -25 -26 0
-127 24 0
-127 25 0
-127 26 0
c p weight 128 -32 0
c p weight -128 0 0
128 -24 -25 -27 0
-128 24 0
-128 25 0
-128 27 0
c p weight 129 -32 0
c p weight -129 0 0
129 -24 -26 -27 0
-129 24 0
-129 26 0
-129 27 0
c p weight 130 -64 0
c p weight -130 0 0
130 -25 -26 -27 0
-130 25 0
-130 26 0
-130 27 0
c p weight 131 -32 0
c p weight -131 0 0
131 -25 -26 -28 0
-131 25 0
-131 26 0
-131 28 0
c p weight 132 -32 0
c p weight -132 0 0
132 -25 -27 -28 0
-132 25 0
-132 27 0
-132 28 0
c p weight 133 -64 0
c p weight -133 0 0
133 -26 -27 -28 0
-133 26 0
-133 27 0
-133 28 0
c p weight 134 -32 0
c p weight -134 0 0
134 -26 -27 -29 0
-134 26 0
-134 27 0
-134 29 0
c p weight 135 -32 0
c p weight -135 0 0
135 -26 -28 -29 0
-135 26 0
-135 28 0
-135 29 0
c p weight 136 -64 0
c p weight -136 0 0
136 -27 -28 -29 0
-136 27 0
-136 28 0
-136 29 0
c p weight 137 -32 0
c p weight -137 0 0
137 -27 -28 -30 0
-137 27 0
-137 28 0
-137 30 0
c p weight 138 -32 0
c p weight -138 0 0
138 -27 -29 -30 0
-138 27 0
-138 29 0
-138 30 0
c p weight 139 -32 0
c p weight -139 0 0
139 -28 -29 -30 0
-139 28 0
-139 29 0
-139 30 0
c p weight 140 16 0
c p weight -140 0 0
140 -1 -2 0
-140 1 0
-140 2 0
c p weight 141 24 0
c p weight -141 0 0
141 -1 -3 0
-141 1 0
-141 3 0
c p weight 142 16 0
c p weight -142 0 0
142 -1 -4 0
-142 1 0
-142 4 0
c p weight 143 32 0
c p weight -143 0 0
143 -2 -3 0
-143 2 0
-143 3 0
c p weight 144 48 0
c p weight -144 0 0
144 -2 -4 0
-144 2 0
-144 4 0
c p weight 145 16 0
c p weight -145 0 0
145 -2 -5 0
-145 2 0
-145 5 0
c p weight 146 48 0
c p weight -146 0 0
146 -3 -4 0
-146 3 0
-146 4 0
c p weight 147 48 0
c p weight -147 0 0
147 -3 -5 0
-147 3 0
-147 5 0
c p weight 148 16 0
c p weight -148 0 0
148 -3 -6 0
-148 3 0
-148 6 0
c p weight 149 48 0
c p weight -149 0 0
149 -4 -5 0
-149 4 0
-149 5 0
c p weight 150 48 0
c p weight -150 0 0
150 -4 -6 0
-150 4 0
-150 6 0
c p weight 151 16 0
c p weight -151 0 0
151 -4 -7 0
-151 4 0
-151 7 0
c p weight 152 48 0
c p weight -152 0 0
152 -5 -6 0
-152 5 0
-152 6 0
c p weight 153 48 0
c p weight -153 0 0
153 -5 -7 0
-153 5 0
-153 7 0
c p weight 154 16 0
c p weight -154 0 0
154 -5 -8 0
-154 5 0
-154 8 0
c p weight 155 48 0
c p weight -155 0 0
155 -6 -7 0
-155 6 0
-155 7 0
c p weight 156 48 0
c p weight -156 0 0
156 -6 -8 0
-156 6 0
-156 8 0
c p weight 157 16 0
c p weight -157 0 0
157 -6 -9 0
-157 6 0
-157 9 0
c p weight 158 48 0
c p weight -158 0 0
158 -7 -8 0
-158 7 0
-158 8 0
c p weight 159 48 0
c p weight -159 0 0
159 -7 -9 0
-159 7 0
-159 9 0
c p weight 160 16 0
c p weight -160 0 0
160 -7 -10 0
-160 7 0
-160 10 0
c p weight 161 48 0
c p weight -161 0 0
161 -8 -9 0
-161 8 0
-161 9 0
c p weight 162 48 0
c p weight -162 0 0
162 -8 -10 0
-162 8 0
-162 10 0
c p weight 163 16 0
c p weight -163 0 0
163 -8 -11 0
-163 8 0
-163 11 0
c p weight 164 48 0
c p weight -164 0 0
164 -9 -10 0
-164 9 0
-164 10 0
c p weight 165 48 0
c p weight -165 0 0
165 -9 -11 0
-165 9 0
-165 11 0
c p weight 166 16 0
c p weight -166 0 0
166 -9 -12 0
-166 9 0
-166 12 0
c p weight 167 48 0
c p weight -167 0 0
167 -10 -11 0
-167 10 0
-167 11 0
c p weight 168 48 0
c p weight -168 0 0
168 -10 -12 0
-168 10 0
-168 12 0
c p weight 169 16 0
c p weight -169 0 0
169 -10 -13 0
-169 10 0
-169 13 0
c p weight 170 48 0
c p weight -170 0 0
170 -11 -12 0
-170 11 0
-170 12 0
c p weight 171 48 0
c p weight -171 0 0
171 -11 -13 0
-171 11 0
-171 13 0
c p weight 172 16 0
c p weight -172 0 0
172 -11 -14 0
-172 11 0
-172 14 0
c p weight 173 48 0
c p weight -173 0 0
173 -12 -13 0
-173 12 0
-173 13 0
c p weight 174 48 0
c p weight -174 0 0
174 -12 -14 0
-174 12 0
-174 14 0
c p weight 175 16 0
c p weight -175 0 0
175 -12 -15 0
-175 12 0
-175 15 0
c p weight 176 48 0
c p weight -176 0 0
176 -13 -14 0
-176 13 0
-176 14 0
c p weight 177 48 0
c p weight -177 0 0
177 -13 -15 0
-177 13 0
-177 15 0
c p weight 178 16 0
c p weight -178 0 0
178 -13 -16 0
-178 13 0
-178 16 0
c p weight 179 48 0
c p weight -179 0 0
179 -14 -15 0
-179 14 0
-179 15 0
c p weight 180 48 0
c p weight -180 0 0
180 -14 -16 0
-180 14 0
-180 16 0
c p weight 181 16 0
c p weight -181 0 0
181 -14 -17 0
-181 14 0
-181 17 0
c p weight 182 48 0
c p weight -182 0 0
182 -15 -16 0
-182 15 0
-182 16 0
c p weight 183 48 0
c p weight -183 0 0
183 -15 -17 0
-183 15 0
-183 17 0
c p weight 184 16 0
c p weight -184 0 0
184 -15 -18 0
-184 15 0
-184 18 0
c p weight 185 48 0
c p weight -185 0 0
185 -16 -17 0
-185 16 0
-185 17 0
c p weight 186 48 0
c p weight -186 0 0
186 -16 -18 0
-186 16 0
-186 18 0
c p weight 187 16 0
c p weight -187 0 0
187 -16 -19 0
-187 16 0
-187 19 0
c p weight 188 48 0
c p weight -188 0 0
188 -17 -18 0
-188 17 0
-188 18 0
c p weight 189 48 0
c p weight -189 0 0
189 -17 -19 0
-189 17 0
-189 19 0
c p weight 190 16 0
c p weight -190 0 0
190 -17 -20 0
-190 17 0
-190 20 0
c p weight 191 48 0
c p weight -191 0 0
191 -18 -19 0
-191 18 0
-191 19 0
c p weight 192 48 0
c p weight -192 0 0
192 -18 -20 0
-192 18 0
-192 20 0
c p weight 193 16 0
c p weight -193 0 0
193 -18 -21 0
-193 18 0
-193 21 0
c p weight 194 48 0
c p weight -194 0 0
194 -19 -20 0
-194 19 0
-194 20 0
c p weight 195 48 0
c p weight -195 0 0
195 -19 -21 0
-195 19 0
-195 21 0
c p weight 196 16 0
c p weight -196 0 0
196 -19 -22 0
-196 19 0
-196 22 0
c p weight 197 48 0
c p weight -197 0 0
197 -20 -21 0
-197 20 0
-197 21 0
c p weight 198 48 0
c p weight -198 0 0
198 -20 -22 0
-198 20 0
-198 22 0
c p weight 199 16 0
c p weight -199 0 0
199 -20 -23 0
-199 20 0
-199 23 0
c p weight 200 48 0
c p weight -200 0 0
200 -21 -22 0
-200 21 0
-200 22 0
c p weight 201 48 0
c p weight -201 0 0
201 -21 -23 0
-201 21 0
-201 23 0
c p weight 202 16 0
c p weight -202 0 0
202 -21 -24 0
-202 21 0
-202 24 0
c p weight 203 48 0
c p weight -203 0 0
203 -22 -23 0
-203 22 0
-203 23 0
c p weight 204 48 0
c p weight -204 0 0
204 -22 -24 0
-204 22 0
-204 24 0
c p weight 205 16 0
c p weight -205 0 0
205 -22 -25 0
-205 22 0
-205 25 0
c p weight 206 48 0
c p weight -206 0 0
206 -23 -24 0
-206 23 0
-206 24 0
c p weight 207 48 0
c p weight -207 0 0
207 -23 -25 0
-207 23 0
-207 25 0
c p weight 208 16 0
c p weight -208 0 0
208 -23 -26 0
-208 23 0
-208 26 0
c p weight 209 48 0
c p weight -209 0 0
209 -24 -25 0
-209 24 0
-209 25 0
c p weight 210 48 0
c p weight -210 0 0
210 -24 -26 0
-210 24 0
-210 26 0
c p weight 211 16 0
c p weight -211 0 0
211 -24 -27 0
-211 24 0
-211 27 0
c p weight 212 48 0
c p weight -212 0 0
212 -25 -26 0
-212 25 0
-212 26 0
c p weight 213 48 0
c p weight -213 0 0
213 -25 -27 0
-213 25 0
-213 27 0
c p weight 214 16 0
c p weight -214 0 0
214 -25 -28 0
-214 25 0
-214 28 0
c p weight 215 48 0
c p weight -215 0 0
215 -26 -27 0
-215 26 0
-215 27 0
c p weight 216 48 0
c p weight -216 0 0
216 -26 -28 0
-216 26 0
-216 28 0
c p weight 217 16 0
c p weight -217 0 0
217 -26 -29 0
-217 26 0
-217 29 0
c p weight 218 48 0
c p weight -218 0 0
218 -27 -28 0
-218 27 0
-218 28 0
c p weight 219 48 0
c p weight -219 0 0
219 -27 -29 0
-219 27 0
-219 29 0
c p weight 220 16 0
c p weight -220 0 0
220 -27 -30 0
-220 27 0
-220 30 0
c p weight 221 32 0
c p weight -221 0 0
221 -28 -29 0
-221 28 0
-221 29 0
c p weight 222 24 0
c p weight -222 0 0
222 -28 -30 0
-222 28 0
-222 30 0
c p weight 223 16 0
c p weight -223 0 0
223 -29 -30 0
-223 29 0
-223 30 0
c p weight 224 -12 0
c p weight -224 0 0
224 -1 0
-224 1 0
c p weight 225 -24 0
c p weight -225 0 0
225 -2 0
-225 2 0
c p weight 226 -36 0
c p weight -226 0 0
226 -3 0
-226 3 0
c p weight 227 -48 0
c p weight -227 0 0
227 -4 0
-227 4 0
c p weight 228 -48 0
c p weight -228 0 0
228 -5 0
-228 5 0
c p weight 229 -48 0
c p weight -229 0 0
229 -6 0
-229 6 0
c p weight 230 -48 0
c p weight -230 0 0
230 -7 0
-230 7 0
c p weight 231 -48 0
c p weight -231 0 0
231 -8 0
-231 8 0
c p weight 232 -48 0
c p weight -232 0 0
232 -9 0
-232 9 0
c p weight 233 -48 0
c p weight -233 0 0
233 -10 0
-233 10 0
c p weight 234 -48 0
c p weight -234 0 0
234 -11 0
-234 11 0
c p weight 235 -48 0
c p weight -235 0 0
235 -12 0
-235 12 0
c p weight 236 -48 0
c p weight -236 0 0
236 -13 0
-236 13 0
c p weight 237 -48 0
c p weight -237 0 0
237 -14 0
-237 14 0
c p weight 238 -48 0
c p weight -238 0 0
238 -15 0
-238 15 0
c p weight 239 -48 0
c p weight -239 0 0
239 -16 0
-239 16 0
c p weight 240 -48 0
c p weight -240 0 0
240 -17 0
-240 17 0
c p weight 241 -48 0
c p weight -241 0 0
241 -18 0
-241 18 0
c p weight 242 -48 0
c p weight -242 0 0
242 -19 0
-242 19 0
c p weight 243 -48 0
c p weight -243 0 0
243 -20 0
-243 20 0
c p weight 244 -48 0
c p weight -244 0 0
244 -21 0
-244 21 0
c p weight 245 -48 0
c p weight -245 0 0
245 -22 0
-245 22 0
c p weight 246 -48 0
c p weight -246 0 0
246 -23 0
-246 23 0
c p weight 247 -48 0
c p weight -247 0 0
247 -24 0
-247 24 0
c p weight 248 -48 0
c p weight -248 0 0
248 -25 0
-248 25 0
c p weight 249 -48 0
c p weight -249 0 0
249 -26 0
-249 26 0
c p weight 250 -48 0
c p weight -250 0 0
250 -27 0
-250 27 0
c p weight 251 -36 0
c p weight -251 0 0
251 -28 0
-251 28 0
c p weight 252 -24 0
c p weight -252 0 0
252 -29 0
-252 29 0
c p weight 253 -12 0
c p weight -253 0 0
253 -30 0
-253 30 0
